cliques=[{0,3,5,7,9},{1,2,4,6,8},{1,2,4,6,8},{0,3,5,7,9},{1,2,4,6,8},{0,3,5,7,9},{1,2,4,6,8},{0,3,5,7,9},{1,2,4,6,8},{0,3,5,7,9},{0,10},{1,11},{3,12},{2,13},{5,14},{4,15},{7,16},{6,17}];
nr_cliques=18;
